NAME : X_38_seed_123_id_3
TYPE : CVRP
DIMENSION : 275
EDGE_WEIGHT_TYPE : EUC_2D
CAPACITY : 10
NODE_COORD_SECTION
1	494	423
2	371	567
3	879	396
4	406	236
5	887	348
6	854	389
7	709	431
8	482	221
9	921	412
10	471	121
11	378	493
12	420	251
13	364	246
14	493	300
15	977	475
16	958	255
17	477	531
18	321	548
19	666	285
20	345	651
21	408	222
22	873	426
23	420	246
24	336	441
25	386	551
26	876	394
27	402	247
28	333	589
29	883	438
30	368	139
31	375	291
32	362	217
33	404	222
34	338	571
35	901	390
36	350	539
37	917	364
38	909	396
39	467	383
40	892	389
41	392	517
42	307	513
43	403	229
44	307	582
45	405	575
46	402	573
47	398	556
48	218	506
49	411	327
50	431	234
51	325	482
52	809	444
53	354	590
54	457	168
55	927	363
56	855	377
57	917	288
58	234	193
59	342	543
60	351	210
61	123	420
62	402	596
63	247	371
64	487	309
65	801	414
66	395	602
67	795	318
68	408	235
69	427	118
70	869	411
71	378	583
72	876	403
73	493	710
74	921	428
75	597	377
76	421	599
77	827	455
78	847	382
79	370	222
80	357	203
81	861	389
82	396	292
83	618	310
84	238	212
85	414	534
86	879	471
87	280	525
88	411	254
89	878	418
90	368	269
91	359	581
92	397	205
93	382	425
94	476	805
95	887	399
96	874	415
97	325	302
98	419	308
99	391	566
100	280	770
101	498	463
102	379	132
103	802	317
104	405	515
105	403	457
106	881	444
107	393	183
108	357	574
109	313	549
110	874	366
111	389	238
112	346	579
113	451	329
114	336	468
115	436	264
116	414	446
117	428	613
118	288	592
119	888	398
120	846	354
121	292	385
122	847	375
123	363	548
124	955	312
125	375	592
126	402	286
127	230	599
128	488	552
129	940	417
130	874	403
131	356	726
132	403	579
133	931	433
134	317	263
135	355	207
136	871	438
137	351	589
138	344	564
139	851	411
140	372	279
141	884	378
142	378	233
143	436	181
144	818	431
145	877	396
146	866	351
147	759	519
148	314	141
149	341	596
150	375	261
151	309	681
152	901	378
153	934	252
154	346	528
155	835	320
156	347	558
157	286	615
158	425	309
159	520	253
160	371	570
161	893	356
162	879	419
163	439	260
164	890	366
165	377	248
166	990	438
167	403	304
168	420	199
169	411	380
170	879	421
171	401	322
172	914	335
173	930	441
174	463	147
175	404	222
176	352	573
177	788	412
178	896	409
179	497	210
180	437	146
181	343	624
182	489	300
183	896	434
184	424	601
185	950	286
186	898	390
187	953	394
188	392	231
189	869	401
190	865	341
191	880	328
192	431	231
193	561	323
194	400	612
195	294	478
196	467	289
197	306	664
198	783	461
199	472	596
200	839	308
201	456	263
202	795	320
203	909	377
204	370	538
205	382	465
206	444	160
207	969	452
208	875	408
209	447	258
210	354	548
211	450	305
212	383	261
213	877	405
214	290	692
215	874	444
216	734	377
217	738	426
218	416	457
219	404	227
220	348	268
221	464	593
222	356	593
223	383	241
224	401	401
225	411	231
226	307	543
227	449	189
228	352	538
229	900	496
230	836	412
231	391	513
232	421	271
233	858	392
234	816	580
235	327	666
236	351	257
237	876	380
238	370	537
239	385	241
240	592	286
241	878	397
242	835	579
243	358	584
244	854	435
245	624	480
246	861	348
247	360	544
248	526	198
249	431	607
250	967	482
251	340	541
252	356	152
253	458	231
254	847	402
255	834	363
256	864	360
257	353	608
258	301	282
259	369	224
260	920	429
261	851	536
262	287	612
263	406	248
264	394	291
265	878	440
266	895	387
267	373	453
268	406	656
269	374	564
270	414	618
271	391	501
272	334	149
273	447	73
274	349	579
275	260	528
DEMAND_SECTION
1	0
2	1
3	1
4	1
5	1
6	1
7	1
8	1
9	1
10	1
11	1
12	1
13	1
14	1
15	1
16	1
17	1
18	1
19	1
20	1
21	1
22	1
23	1
24	1
25	1
26	1
27	1
28	1
29	1
30	1
31	1
32	1
33	1
34	1
35	1
36	1
37	1
38	1
39	1
40	1
41	1
42	1
43	1
44	1
45	1
46	1
47	1
48	1
49	1
50	1
51	1
52	1
53	1
54	1
55	1
56	1
57	1
58	1
59	1
60	1
61	1
62	1
63	1
64	1
65	1
66	1
67	1
68	1
69	1
70	1
71	1
72	1
73	1
74	1
75	1
76	1
77	1
78	1
79	1
80	1
81	1
82	1
83	1
84	1
85	1
86	1
87	1
88	1
89	1
90	1
91	1
92	1
93	1
94	1
95	1
96	1
97	1
98	1
99	1
100	1
101	1
102	1
103	1
104	1
105	1
106	1
107	1
108	1
109	1
110	1
111	1
112	1
113	1
114	1
115	1
116	1
117	1
118	1
119	1
120	1
121	1
122	1
123	1
124	1
125	1
126	1
127	1
128	1
129	1
130	1
131	1
132	1
133	1
134	1
135	1
136	1
137	1
138	1
139	1
140	1
141	1
142	1
143	1
144	1
145	1
146	1
147	1
148	1
149	1
150	1
151	1
152	1
153	1
154	1
155	1
156	1
157	1
158	1
159	1
160	1
161	1
162	1
163	1
164	1
165	1
166	1
167	1
168	1
169	1
170	1
171	1
172	1
173	1
174	1
175	1
176	1
177	1
178	1
179	1
180	1
181	1
182	1
183	1
184	1
185	1
186	1
187	1
188	1
189	1
190	1
191	1
192	1
193	1
194	1
195	1
196	1
197	1
198	1
199	1
200	1
201	1
202	1
203	1
204	1
205	1
206	1
207	1
208	1
209	1
210	1
211	1
212	1
213	1
214	1
215	1
216	1
217	1
218	1
219	1
220	1
221	1
222	1
223	1
224	1
225	1
226	1
227	1
228	1
229	1
230	1
231	1
232	1
233	1
234	1
235	1
236	1
237	1
238	1
239	1
240	1
241	1
242	1
243	1
244	1
245	1
246	1
247	1
248	1
249	1
250	1
251	1
252	1
253	1
254	1
255	1
256	1
257	1
258	1
259	1
260	1
261	1
262	1
263	1
264	1
265	1
266	1
267	1
268	1
269	1
270	1
271	1
272	1
273	1
274	1
275	1
DEPOT_SECTION
1
-1
EOF
